data/solutions/recovery/wellformed/moderate/flexible/wellformed_moderate_instance76/27.sol
Elapsed time: 0.09
Upper bound: 1927.0
Planning weighted value: 132235.0
C[0]=1927.0
C[1]=1908.0
C[2]=1904.0
C[3]=1782.0
C[4]=1760.0
C[5]=0.0
y[0]=2
y[1]=2
y[2]=0
y[3]=4
y[4]=3
y[5]=3
y[6]=1
y[7]=0
y[8]=4
y[9]=1
y[10]=4
y[11]=3
y[12]=1
y[13]=0
y[14]=3
y[15]=2
y[16]=2
y[17]=3
y[18]=3
y[19]=1
